 &bands
	prefix  = 'espresso',
    filband = 'bands.dat'
    outdir = './out/'
/
&SYSTEM
    a                         =  3.79000
    c                         =  9.57000
	degauss                   =  0.01
    ecutrho                   =  200
    ecutwfc                   =  35
    ibrav                     = 6
    nat                       = 12
    nspin                     = 2
    ntyp                      = 2
	nbnd                      = 84
    occupations               = "smearing"
    smearing                  = "gaussian"
	starting_magnetization(1) =  0.2
    starting_magnetization(2) =  0
/

&ELECTRONS
    conv_thr         =  0.000001
    electron_maxstep = 200
    mixing_beta      =  0.4
    startingpot      = "atomic"
    startingwfc      = "atomic+random"
/

ATOMIC_SPECIES
Ti     47.86700  Ti.pbe-sp-van_ak.UPF
O      15.99940  O.pbe-rrkjus.UPF

ATOMIC_POSITIONS (angstrom)
Ti      0.000000   0.000000   0.000000
Ti      1.895000   1.895000   4.785000
Ti      0.000000   1.895000   2.392500
Ti      1.895000   0.000000   7.177500
O       0.000000   0.000000   1.914000
O       1.895000   1.895000   6.699000
O       0.000000   1.895000   4.306500
O       1.895000   0.000000   9.091500
O       1.895000   0.000000   5.263500
O       0.000000   1.895000   0.478500
O       1.895000   1.895000   2.871000
O       0.000000   0.000000   7.656000

K_POINTS crystal
259
    0.0000000000     0.0000000000     0.0000000000 1
    0.0000000000     0.0000000000     0.0111111111 1
    0.0000000000     0.0000000000     0.0222222222 1
    0.0000000000     0.0000000000     0.0333333333 1
    0.0000000000     0.0000000000     0.0444444444 1
    0.0000000000     0.0000000000     0.0555555556 1
    0.0000000000     0.0000000000     0.0666666667 1
    0.0000000000     0.0000000000     0.0777777778 1
    0.0000000000     0.0000000000     0.0888888889 1
    0.0000000000     0.0000000000     0.1000000000 1
    0.0000000000     0.0000000000     0.1111111111 1
    0.0000000000     0.0000000000     0.1222222222 1
    0.0000000000     0.0000000000     0.1333333333 1
    0.0000000000     0.0000000000     0.1444444444 1
    0.0000000000     0.0000000000     0.1555555556 1
    0.0000000000     0.0000000000     0.1666666667 1
    0.0000000000     0.0000000000     0.1777777778 1
    0.0000000000     0.0000000000     0.1888888889 1
    0.0000000000     0.0000000000     0.2000000000 1
    0.0000000000     0.0000000000     0.2111111111 1
    0.0000000000     0.0000000000     0.2222222222 1
    0.0000000000     0.0000000000     0.2333333333 1
    0.0000000000     0.0000000000     0.2444444444 1
    0.0000000000     0.0000000000     0.2555555556 1
    0.0000000000     0.0000000000     0.2666666667 1
    0.0000000000     0.0000000000     0.2777777778 1
    0.0000000000     0.0000000000     0.2888888889 1
    0.0000000000     0.0000000000     0.3000000000 1
    0.0000000000     0.0000000000     0.3111111111 1
    0.0000000000     0.0000000000     0.3222222222 1
    0.0000000000     0.0000000000     0.3333333333 1
    0.0000000000     0.0000000000     0.3444444444 1
    0.0000000000     0.0000000000     0.3555555556 1
    0.0000000000     0.0000000000     0.3666666667 1
    0.0000000000     0.0000000000     0.3777777778 1
    0.0000000000     0.0000000000     0.3888888889 1
    0.0000000000     0.0000000000     0.4000000000 1
    0.0000000000     0.0000000000     0.4111111111 1
    0.0000000000     0.0000000000     0.4222222222 1
    0.0000000000     0.0000000000     0.4333333333 1
    0.0000000000     0.0000000000     0.4444444444 1
    0.0000000000     0.0000000000     0.4555555556 1
    0.0000000000     0.0000000000     0.4666666667 1
    0.0000000000     0.0000000000     0.4777777778 1
    0.0000000000     0.0000000000     0.4888888889 1
    0.0000000000     0.0000000000     0.5000000000 1
    0.0208333333     0.0208333333     0.4791666667 1
    0.0416666667     0.0416666667     0.4583333333 1
    0.0625000000     0.0625000000     0.4375000000 1
    0.0833333333     0.0833333333     0.4166666667 1
    0.1041666667     0.1041666667     0.3958333333 1
    0.1250000000     0.1250000000     0.3750000000 1
    0.1458333333     0.1458333333     0.3541666667 1
    0.1666666667     0.1666666667     0.3333333333 1
    0.1875000000     0.1875000000     0.3125000000 1
    0.2083333333     0.2083333333     0.2916666667 1
    0.2291666667     0.2291666667     0.2708333333 1
    0.2500000000     0.2500000000     0.2500000000 1
    0.2421875000     0.2578125000     0.2421875000 1
    0.2343750000     0.2656250000     0.2343750000 1
    0.2265625000     0.2734375000     0.2265625000 1
    0.2187500000     0.2812500000     0.2187500000 1
    0.2109375000     0.2890625000     0.2109375000 1
    0.2031250000     0.2968750000     0.2031250000 1
    0.1953125000     0.3046875000     0.1953125000 1
    0.1875000000     0.3125000000     0.1875000000 1
    0.1796875000     0.3203125000     0.1796875000 1
    0.1718750000     0.3281250000     0.1718750000 1
    0.1640625000     0.3359375000     0.1640625000 1
    0.1562500000     0.3437500000     0.1562500000 1
    0.1484375000     0.3515625000     0.1484375000 1
    0.1406250000     0.3593750000     0.1406250000 1
    0.1328125000     0.3671875000     0.1328125000 1
    0.1250000000     0.3750000000     0.1250000000 1
    0.1171875000     0.3828125000     0.1171875000 1
    0.1093750000     0.3906250000     0.1093750000 1
    0.1015625000     0.3984375000     0.1015625000 1
    0.0937500000     0.4062500000     0.0937500000 1
    0.0859375000     0.4140625000     0.0859375000 1
    0.0781250000     0.4218750000     0.0781250000 1
    0.0703125000     0.4296875000     0.0703125000 1
    0.0625000000     0.4375000000     0.0625000000 1
    0.0546875000     0.4453125000     0.0546875000 1
    0.0468750000     0.4531250000     0.0468750000 1
    0.0390625000     0.4609375000     0.0390625000 1
    0.0312500000     0.4687500000     0.0312500000 1
    0.0234375000     0.4765625000     0.0234375000 1
    0.0156250000     0.4843750000     0.0156250000 1
    0.0078125000     0.4921875000     0.0078125000 1
    0.0000000000     0.5000000000     0.0000000000 1
    0.0000000000     0.4852941176     0.0000000000 1
    0.0000000000     0.4705882353     0.0000000000 1
    0.0000000000     0.4558823529     0.0000000000 1
    0.0000000000     0.4411764706     0.0000000000 1
    0.0000000000     0.4264705882     0.0000000000 1
    0.0000000000     0.4117647059     0.0000000000 1
    0.0000000000     0.3970588235     0.0000000000 1
    0.0000000000     0.3823529412     0.0000000000 1
    0.0000000000     0.3676470588     0.0000000000 1
    0.0000000000     0.3529411765     0.0000000000 1
    0.0000000000     0.3382352941     0.0000000000 1
    0.0000000000     0.3235294118     0.0000000000 1
    0.0000000000     0.3088235294     0.0000000000 1
    0.0000000000     0.2941176471     0.0000000000 1
    0.0000000000     0.2794117647     0.0000000000 1
    0.0000000000     0.2647058824     0.0000000000 1
    0.0000000000     0.2500000000     0.0000000000 1
    0.0000000000     0.2352941176     0.0000000000 1
    0.0000000000     0.2205882353     0.0000000000 1
    0.0000000000     0.2058823529     0.0000000000 1
    0.0000000000     0.1911764706     0.0000000000 1
    0.0000000000     0.1764705882     0.0000000000 1
    0.0000000000     0.1617647059     0.0000000000 1
    0.0000000000     0.1470588235     0.0000000000 1
    0.0000000000     0.1323529412     0.0000000000 1
    0.0000000000     0.1176470588     0.0000000000 1
    0.0000000000     0.1029411765     0.0000000000 1
    0.0000000000     0.0882352941     0.0000000000 1
    0.0000000000     0.0735294118     0.0000000000 1
    0.0000000000     0.0588235294     0.0000000000 1
    0.0000000000     0.0441176471     0.0000000000 1
    0.0000000000     0.0294117647     0.0000000000 1
    0.0000000000     0.0147058824     0.0000000000 1
    0.0000000000     0.0000000000     0.0000000000 1
    0.0200000000     0.0200000000    -0.0200000000 1
    0.0400000000     0.0400000000    -0.0400000000 1
    0.0600000000     0.0600000000    -0.0600000000 1
    0.0800000000     0.0800000000    -0.0800000000 1
    0.1000000000     0.1000000000    -0.1000000000 1
    0.1200000000     0.1200000000    -0.1200000000 1
    0.1400000000     0.1400000000    -0.1400000000 1
    0.1600000000     0.1600000000    -0.1600000000 1
    0.1800000000     0.1800000000    -0.1800000000 1
    0.2000000000     0.2000000000    -0.2000000000 1
    0.2200000000     0.2200000000    -0.2200000000 1
    0.2400000000     0.2400000000    -0.2400000000 1
    0.2600000000     0.2600000000    -0.2600000000 1
    0.2800000000     0.2800000000    -0.2800000000 1
    0.3000000000     0.3000000000    -0.3000000000 1
    0.3200000000     0.3200000000    -0.3200000000 1
    0.3400000000     0.3400000000    -0.3400000000 1
    0.3600000000     0.3600000000    -0.3600000000 1
    0.3800000000     0.3800000000    -0.3800000000 1
    0.4000000000     0.4000000000    -0.4000000000 1
    0.4200000000     0.4200000000    -0.4200000000 1
    0.4400000000     0.4400000000    -0.4400000000 1
    0.4600000000     0.4600000000    -0.4600000000 1
    0.4800000000     0.4800000000    -0.4800000000 1
    0.5000000000     0.5000000000    -0.5000000000 1
    0.4918926844     0.5081073156    -0.4918926844 1
    0.4837853687     0.5162146313    -0.4837853687 1
    0.4756780531     0.5243219469    -0.4756780531 1
    0.4675707374     0.5324292626    -0.4675707374 1
    0.4594634218     0.5405365782    -0.4594634218 1
    0.4513561062     0.5486438938    -0.4513561062 1
    0.4432487905     0.5567512095    -0.4432487905 1
    0.4351414749     0.5648585251    -0.4351414749 1
    0.4270341592     0.5729658408    -0.4270341592 1
    0.4189268436     0.5810731564    -0.4189268436 1
    0.4108195279     0.5891804721    -0.4108195279 1
    0.4027122123     0.5972877877    -0.4027122123 1
    0.3946048967     0.6053951033    -0.3946048967 1
    0.3864975810     0.6135024190    -0.3864975810 1
    0.3783902654     0.6216097346    -0.3783902654 1
    0.3702829497     0.6297170503    -0.3702829497 1
    0.3621756341     0.6378243659    -0.3621756341 1
    0.3540683185     0.6459316815    -0.3540683185 1
    0.3459610028     0.6540389972    -0.3459610028 1
    0.3378536872     0.6621463128    -0.3378536872 1
    0.3297463715     0.6702536285    -0.3297463715 1
    0.3216390559     0.6783609441    -0.3216390559 1
    0.3135317402     0.6864682598    -0.3135317402 1
    0.3054244246     0.6945755754    -0.3054244246 1
    0.2973171090     0.7026828910    -0.2973171090 1
    0.2892097933     0.7107902067    -0.2892097933 1
   -0.2892097933     0.2892097933     0.2892097933 1
   -0.2813933124     0.2813933124     0.2813933124 1
   -0.2735768315     0.2735768315     0.2735768315 1
   -0.2657603506     0.2657603506     0.2657603506 1
   -0.2579438697     0.2579438697     0.2579438697 1
   -0.2501273888     0.2501273888     0.2501273888 1
   -0.2423109079     0.2423109079     0.2423109079 1
   -0.2344944270     0.2344944270     0.2344944270 1
   -0.2266779461     0.2266779461     0.2266779461 1
   -0.2188614652     0.2188614652     0.2188614652 1
   -0.2110449843     0.2110449843     0.2110449843 1
   -0.2032285034     0.2032285034     0.2032285034 1
   -0.1954120225     0.1954120225     0.1954120225 1
   -0.1875955416     0.1875955416     0.1875955416 1
   -0.1797790607     0.1797790607     0.1797790607 1
   -0.1719625798     0.1719625798     0.1719625798 1
   -0.1641460989     0.1641460989     0.1641460989 1
   -0.1563296180     0.1563296180     0.1563296180 1
   -0.1485131371     0.1485131371     0.1485131371 1
   -0.1406966562     0.1406966562     0.1406966562 1
   -0.1328801753     0.1328801753     0.1328801753 1
   -0.1250636944     0.1250636944     0.1250636944 1
   -0.1172472135     0.1172472135     0.1172472135 1
   -0.1094307326     0.1094307326     0.1094307326 1
   -0.1016142517     0.1016142517     0.1016142517 1
   -0.0937977708     0.0937977708     0.0937977708 1
   -0.0859812899     0.0859812899     0.0859812899 1
   -0.0781648090     0.0781648090     0.0781648090 1
   -0.0703483281     0.0703483281     0.0703483281 1
   -0.0625318472     0.0625318472     0.0625318472 1
   -0.0547153663     0.0547153663     0.0547153663 1
   -0.0468988854     0.0468988854     0.0468988854 1
   -0.0390824045     0.0390824045     0.0390824045 1
   -0.0312659236     0.0312659236     0.0312659236 1
   -0.0234494427     0.0234494427     0.0234494427 1
   -0.0156329618     0.0156329618     0.0156329618 1
   -0.0078164809     0.0078164809     0.0078164809 1
    0.0000000000     0.0000000000     0.0000000000 1
    0.0000000000     0.0000000000     0.5000000000 1
   -0.0130699311     0.0130699311     0.5000000000 1
   -0.0261398622     0.0261398622     0.5000000000 1
   -0.0392097933     0.0392097933     0.5000000000 1
   -0.0522797244     0.0522797244     0.5000000000 1
   -0.0653496555     0.0653496555     0.5000000000 1
   -0.0784195866     0.0784195866     0.5000000000 1
    0.5000000000     0.5000000000    -0.0784195866 1
    0.5000000000     0.5000000000    -0.0895138080 1
    0.5000000000     0.5000000000    -0.1006080294 1
    0.5000000000     0.5000000000    -0.1117022508 1
    0.5000000000     0.5000000000    -0.1227964723 1
    0.5000000000     0.5000000000    -0.1338906937 1
    0.5000000000     0.5000000000    -0.1449849151 1
    0.5000000000     0.5000000000    -0.1560791365 1
    0.5000000000     0.5000000000    -0.1671733579 1
    0.5000000000     0.5000000000    -0.1782675793 1
    0.5000000000     0.5000000000    -0.1893618007 1
    0.5000000000     0.5000000000    -0.2004560221 1
    0.5000000000     0.5000000000    -0.2115502435 1
    0.5000000000     0.5000000000    -0.2226444649 1
    0.5000000000     0.5000000000    -0.2337386863 1
    0.5000000000     0.5000000000    -0.2448329077 1
    0.5000000000     0.5000000000    -0.2559271291 1
    0.5000000000     0.5000000000    -0.2670213505 1
    0.5000000000     0.5000000000    -0.2781155719 1
    0.5000000000     0.5000000000    -0.2892097933 1
    0.5000000000     0.5000000000    -0.3003040147 1
    0.5000000000     0.5000000000    -0.3113982361 1
    0.5000000000     0.5000000000    -0.3224924575 1
    0.5000000000     0.5000000000    -0.3335866789 1
    0.5000000000     0.5000000000    -0.3446809003 1
    0.5000000000     0.5000000000    -0.3557751217 1
    0.5000000000     0.5000000000    -0.3668693431 1
    0.5000000000     0.5000000000    -0.3779635646 1
    0.5000000000     0.5000000000    -0.3890577860 1
    0.5000000000     0.5000000000    -0.4001520074 1
    0.5000000000     0.5000000000    -0.4112462288 1
    0.5000000000     0.5000000000    -0.4223404502 1
    0.5000000000     0.5000000000    -0.4334346716 1
    0.5000000000     0.5000000000    -0.4445288930 1
    0.5000000000     0.5000000000    -0.4556231144 1
    0.5000000000     0.5000000000    -0.4667173358 1
    0.5000000000     0.5000000000    -0.4778115572 1
    0.5000000000     0.5000000000    -0.4889057786 1
    0.5000000000     0.5000000000    -0.5000000000 1
